(set-logic QF_S)
(declare-fun var_0xINPUT_50350 () String)
(assert (and (= (len var_0xINPUT_50350) 0) (= (len var_0xINPUT_50350) 0) (not (= var_0xINPUT_50350 "Example:")) (not (= var_0xINPUT_50350 "4PH2ujcENG"))))
(check-sat var_0xINPUT_50350)